NAME: test1708
TYPE: TSP
DIMENSION: 11
EDGE_WEIGHT_TYPE: EUC_2D
NODE_COORD_SECTION
1 42.00774516310627 8.528499999532336
2 30.417049983469614 79.22592133043331
3 65.14215889521662 13.857084145527098
4 18.922338818697604 61.78669591195941
5 88.76146043868046 59.576424122615
6 21.580286587635833 10.149513825608858
7 21.22443391162675 46.59150798739249
8 61.713198358497614 86.85847518175132
9 33.93202173909635 35.74578999874461
10 39.67996312329532 44.42087199299636
11 12.50627922558466 52.11687865538477
EOF
